************************************************************************
file with basedata            : mm47_.bas
initial value random generator: 2027669860
************************************************************************
projects                      :  1
jobs (incl. supersource/sink ):  12
horizon                       :  66
RESOURCES
  - renewable                 :  2   R
  - nonrenewable              :  2   N
  - doubly constrained        :  0   D
************************************************************************
PROJECT INFORMATION:
pronr.  #jobs rel.date duedate tardcost  MPM-Time
    1     10      0       14        8       14
************************************************************************
PRECEDENCE RELATIONS:
jobnr.    #modes  #successors   successors
   0        1          3           1   2   3
   1        3          3           4   7   9
   2        3          2           6   9
   3        3          2           9  10
   4        3          1           5
   5        3          2           6   8
   6        3          1          10
   7        3          1          10
   8        3          1          11
   9        3          1          11
  10        3          1          11
  11        1          0        
************************************************************************
REQUESTS/DURATIONS:
jobnr. mode duration  R 1  R 2  R 3  R 4  E(W 1)  E(W 2)  E(W 3)
------------------------------------------------------------------------
  0      1     0       0    0    0    0     0       0       0
  1      1     2       9    8    7    5    34      14      10
  2      1     1       2    6    8    7     8       8       7
  3      1     2       6    8    8   10    28      16      20
  4      1     4      10   10    8   10    80      32      40
  5      1     1       9    6    4    2    15       4       2
  6      1     5       5    6    7   10    55      35      50
  7      1     5      10   10    3    8    100      15      40
  8      1     2       6    9    7    8    30      14      16
  9      1     3       3    6    8    2    27      24       6
 10      1     2       8    8    8    5    32      16      10
 11      1     0       0    0    0    0     0       0       0
************************************************************************
RESOURCEAVAILABILITIES:
  R 1  R 2  R 3
   34   59   61
************************************************************************
RESOURCE LIMITS:
jobnr.  l(R 1)  u(R 1)  l(R 2)  u(R 2)  l(R 3)  u(R 3)
------------------------------------------------------------------------
  0        0       0       0       0       0       0
  1        9      17       4       7       3       5
  2        4       8       4       8       4       7
  3        7      14       4       8       5      10
  4       10      20       4       8       5      10
  5        8      15       2       4       1       2
  6        6      11       4       7       5      10
  7       10      20       2       3       4       8
  8        8      15       4       7       4       8
  9        5       9       4       8       1       2
 10        8      16       4       8       3       5
 11        0       0       0       0       0       0
************************************************************************
SCENARIOS:
------------------------------------------------------------------------
RESOURCE k = 1
s = 1: (0, 27, 9, 36, 56, 9, 67, 121, 18, 41, 46, 0)
s = 2: (0, 23, 8, 35, 83, 14, 62, 67, 22, 22, 36, 0)
s = 3: (0, 34, 6, 37, 86, 23, 41, 74, 24, 18, 37, 0)
s = 4: (0, 30, 5, 25, 55, 19, 74, 142, 39, 29, 25, 0)
s = 5: (0, 46, 11, 15, 51, 19, 49, 113, 25, 22, 33, 0)
s = 6: (0, 26, 9, 29, 57, 9, 49, 150, 25, 21, 51, 0)
s = 7: (0, 24, 10, 39, 83, 13, 71, 151, 43, 34, 31, 0)
s = 8: (0, 28, 7, 28, 76, 9, 38, 123, 26, 28, 26, 0)
s = 9: (0, 35, 6, 30, 87, 12, 70, 129, 37, 26, 22, 0)
s = 10: (0, 20, 6, 24, 83, 22, 56, 90, 29, 31, 35, 0)
s = 11: (0, 23, 9, 37, 83, 15, 58, 89, 18, 25, 31, 0)
s = 12: (0, 37, 8, 19, 135, 10, 51, 81, 39, 36, 24, 0)
s = 13: (0, 34, 6, 22, 109, 18, 53, 127, 20, 30, 31, 0)
s = 14: (0, 41, 11, 35, 67, 14, 50, 127, 41, 28, 47, 0)
s = 15: (0, 44, 9, 20, 57, 14, 49, 119, 20, 17, 45, 0)
s = 16: (0, 53, 10, 33, 88, 11, 55, 59, 21, 21, 19, 0)
s = 17: (0, 39, 5, 35, 81, 16, 32, 136, 24, 41, 29, 0)
s = 18: (0, 35, 11, 28, 117, 21, 68, 71, 37, 46, 32, 0)
s = 19: (0, 20, 9, 34, 77, 14, 87, 56, 19, 33, 43, 0)
s = 20: (0, 44, 9, 20, 79, 13, 58, 114, 42, 16, 29, 0)
s = 21: (0, 37, 9, 32, 75, 16, 67, 95, 41, 35, 34, 0)
s = 22: (0, 39, 10, 23, 113, 17, 44, 104, 21, 39, 32, 0)
s = 23: (0, 43, 8, 36, 80, 10, 80, 64, 31, 29, 29, 0)
s = 24: (0, 28, 10, 26, 87, 17, 57, 81, 41, 30, 25, 0)
s = 25: (0, 43, 7, 42, 127, 17, 47, 104, 27, 26, 24, 0)
s = 26: (0, 36, 7, 41, 90, 14, 56, 105, 28, 20, 28, 0)
s = 27: (0, 29, 10, 34, 50, 14, 30, 104, 37, 25, 40, 0)
s = 28: (0, 26, 8, 28, 87, 22, 65, 140, 39, 43, 23, 0)
s = 29: (0, 20, 5, 34, 109, 13, 69, 100, 23, 29, 36, 0)
s = 30: (0, 38, 10, 33, 59, 10, 33, 100, 30, 18, 44, 0)
s = 31: (0, 38, 8, 26, 104, 12, 47, 79, 29, 23, 25, 0)
s = 32: (0, 35, 16, 33, 83, 17, 48, 85, 28, 24, 24, 0)
s = 33: (0, 29, 11, 24, 64, 13, 56, 125, 27, 23, 31, 0)
s = 34: (0, 36, 13, 38, 137, 22, 59, 102, 32, 25, 41, 0)
s = 35: (0, 23, 10, 40, 119, 15, 47, 115, 29, 36, 45, 0)
s = 36: (0, 49, 9, 41, 60, 12, 49, 86, 33, 43, 26, 0)
s = 37: (0, 32, 7, 27, 111, 16, 56, 156, 25, 36, 53, 0)
s = 38: (0, 33, 8, 27, 61, 14, 44, 109, 31, 22, 32, 0)
s = 39: (0, 42, 8, 24, 49, 10, 63, 64, 29, 23, 34, 0)
s = 40: (0, 35, 7, 33, 57, 12, 40, 100, 34, 38, 30, 0)
s = 41: (0, 50, 6, 41, 111, 15, 44, 75, 27, 18, 31, 0)
s = 42: (0, 27, 5, 37, 125, 22, 43, 125, 21, 33, 29, 0)
s = 43: (0, 39, 9, 27, 65, 11, 37, 57, 27, 25, 44, 0)
s = 44: (0, 37, 8, 28, 109, 14, 86, 126, 25, 28, 24, 0)
s = 45: (0, 27, 12, 22, 119, 22, 65, 123, 29, 23, 25, 0)
s = 46: (0, 22, 7, 18, 86, 14, 65, 71, 24, 19, 35, 0)
s = 47: (0, 23, 9, 25, 80, 8, 30, 86, 41, 27, 41, 0)
s = 48: (0, 27, 14, 30, 98, 15, 60, 68, 21, 28, 36, 0)
s = 49: (0, 29, 11, 30, 68, 16, 32, 114, 25, 34, 41, 0)
s = 50: (0, 23, 9, 35, 110, 14, 74, 69, 23, 19, 21, 0)
s = 51: (0, 21, 9, 27, 112, 19, 39, 100, 33, 20, 33, 0)
s = 52: (0, 31, 11, 20, 63, 19, 60, 123, 34, 21, 35, 0)
s = 53: (0, 19, 6, 29, 93, 15, 29, 106, 35, 38, 35, 0)
s = 54: (0, 48, 7, 36, 77, 16, 70, 97, 39, 31, 31, 0)
s = 55: (0, 23, 15, 17, 58, 21, 35, 141, 41, 39, 24, 0)
s = 56: (0, 40, 6, 22, 110, 14, 41, 100, 19, 19, 36, 0)
s = 57: (0, 22, 5, 29, 105, 13, 43, 77, 35, 31, 51, 0)
s = 58: (0, 57, 12, 15, 74, 20, 39, 71, 30, 28, 29, 0)
s = 59: (0, 31, 7, 22, 95, 11, 55, 107, 22, 34, 56, 0)
s = 60: (0, 52, 8, 29, 130, 14, 67, 83, 22, 29, 26, 0)
s = 61: (0, 24, 7, 22, 121, 15, 36, 105, 24, 22, 18, 0)
s = 62: (0, 56, 5, 32, 77, 12, 75, 79, 40, 23, 27, 0)
s = 63: (0, 27, 8, 17, 104, 14, 47, 97, 23, 18, 42, 0)
s = 64: (0, 36, 9, 24, 74, 14, 45, 116, 34, 37, 36, 0)
s = 65: (0, 37, 9, 36, 54, 13, 57, 155, 49, 42, 29, 0)
s = 66: (0, 50, 12, 31, 59, 22, 45, 54, 23, 21, 30, 0)
s = 67: (0, 30, 12, 23, 65, 17, 44, 118, 24, 42, 36, 0)
s = 68: (0, 28, 9, 17, 107, 18, 90, 101, 38, 20, 43, 0)
s = 69: (0, 27, 7, 30, 68, 16, 83, 123, 21, 16, 37, 0)
s = 70: (0, 27, 9, 22, 56, 13, 76, 131, 27, 25, 26, 0)
s = 71: (0, 25, 7, 48, 86, 19, 46, 84, 23, 19, 38, 0)
s = 72: (0, 22, 7, 33, 84, 19, 67, 135, 28, 21, 33, 0)
s = 73: (0, 30, 9, 32, 62, 15, 37, 126, 21, 32, 40, 0)
s = 74: (0, 36, 6, 44, 140, 22, 40, 99, 29, 22, 38, 0)
s = 75: (0, 33, 9, 29, 79, 14, 72, 56, 28, 36, 28, 0)
s = 76: (0, 31, 12, 33, 60, 26, 37, 132, 20, 30, 46, 0)
s = 77: (0, 25, 7, 31, 80, 16, 36, 66, 32, 29, 33, 0)
s = 78: (0, 23, 13, 25, 85, 13, 43, 68, 42, 21, 29, 0)
s = 79: (0, 22, 8, 20, 95, 21, 48, 99, 29, 31, 39, 0)
s = 80: (0, 39, 5, 25, 96, 25, 55, 58, 18, 23, 29, 0)
s = 81: (0, 26, 6, 21, 86, 13, 63, 100, 19, 43, 28, 0)
s = 82: (0, 29, 9, 30, 72, 23, 46, 108, 26, 35, 24, 0)
s = 83: (0, 58, 9, 23, 113, 17, 54, 64, 45, 23, 34, 0)
s = 84: (0, 29, 9, 21, 93, 14, 39, 68, 31, 16, 21, 0)
s = 85: (0, 38, 9, 29, 104, 16, 68, 77, 50, 39, 40, 0)
s = 86: (0, 34, 8, 38, 74, 15, 51, 72, 38, 35, 27, 0)
s = 87: (0, 37, 8, 26, 52, 12, 75, 108, 40, 18, 30, 0)
s = 88: (0, 43, 8, 29, 100, 17, 36, 80, 43, 20, 52, 0)
s = 89: (0, 25, 12, 31, 66, 12, 78, 110, 21, 35, 41, 0)
s = 90: (0, 28, 6, 44, 78, 14, 46, 78, 23, 29, 21, 0)
s = 91: (0, 47, 8, 36, 46, 14, 36, 91, 35, 23, 31, 0)
s = 92: (0, 35, 12, 38, 65, 12, 100, 107, 23, 15, 46, 0)
s = 93: (0, 35, 10, 30, 59, 12, 42, 62, 36, 23, 26, 0)
s = 94: (0, 28, 7, 30, 118, 19, 83, 93, 27, 24, 50, 0)
s = 95: (0, 33, 10, 24, 66, 23, 58, 132, 44, 26, 30, 0)
s = 96: (0, 47, 11, 25, 66, 13, 37, 115, 37, 19, 33, 0)
s = 97: (0, 27, 10, 19, 105, 22, 52, 128, 34, 27, 21, 0)
s = 98: (0, 21, 8, 18, 43, 19, 62, 95, 23, 24, 32, 0)
s = 99: (0, 45, 10, 36, 66, 22, 104, 96, 45, 35, 43, 0)
s = 100: (0, 22, 7, 46, 77, 25, 46, 118, 38, 33, 50, 0)
s = 101: (0, 45, 10, 36, 89, 17, 88, 102, 32, 28, 31, 0)
s = 102: (0, 41, 5, 20, 88, 11, 38, 108, 33, 24, 18, 0)
s = 103: (0, 28, 7, 18, 87, 16, 54, 102, 36, 22, 48, 0)
s = 104: (0, 38, 7, 21, 55, 10, 77, 63, 32, 26, 50, 0)
s = 105: (0, 54, 8, 22, 74, 21, 52, 133, 24, 30, 34, 0)
s = 106: (0, 26, 9, 39, 97, 10, 55, 52, 29, 34, 28, 0)
s = 107: (0, 32, 9, 37, 55, 13, 82, 94, 35, 35, 28, 0)
s = 108: (0, 41, 9, 35, 74, 15, 77, 70, 25, 39, 58, 0)
s = 109: (0, 28, 10, 20, 100, 16, 53, 65, 19, 44, 33, 0)
s = 110: (0, 39, 11, 18, 89, 27, 89, 125, 27, 27, 29, 0)
s = 111: (0, 36, 11, 33, 77, 23, 72, 95, 32, 28, 32, 0)
s = 112: (0, 27, 11, 20, 100, 13, 48, 126, 33, 23, 39, 0)
s = 113: (0, 38, 8, 23, 51, 11, 58, 97, 26, 24, 25, 0)
s = 114: (0, 32, 6, 29, 107, 15, 53, 97, 38, 33, 30, 0)
s = 115: (0, 40, 6, 29, 50, 15, 43, 109, 27, 24, 28, 0)
s = 116: (0, 33, 11, 23, 102, 12, 71, 162, 38, 20, 21, 0)
s = 117: (0, 27, 12, 33, 86, 16, 38, 142, 34, 25, 19, 0)
s = 118: (0, 38, 8, 29, 84, 22, 47, 129, 46, 23, 39, 0)
s = 119: (0, 30, 6, 34, 50, 13, 54, 86, 31, 30, 49, 0)
s = 120: (0, 26, 6, 42, 100, 16, 37, 112, 37, 40, 45, 0)
s = 121: (0, 25, 12, 24, 83, 21, 44, 133, 41, 29, 39, 0)
s = 122: (0, 20, 8, 24, 105, 14, 47, 103, 22, 24, 30, 0)
s = 123: (0, 44, 11, 19, 47, 16, 54, 96, 20, 26, 23, 0)
s = 124: (0, 30, 7, 29, 91, 14, 79, 123, 44, 21, 31, 0)
s = 125: (0, 28, 8, 20, 77, 10, 68, 70, 23, 31, 36, 0)
s = 126: (0, 41, 8, 33, 105, 13, 49, 127, 27, 32, 42, 0)
s = 127: (0, 39, 7, 16, 60, 20, 45, 95, 31, 31, 39, 0)
s = 128: (0, 33, 12, 18, 66, 12, 48, 80, 41, 42, 30, 0)
s = 129: (0, 30, 6, 30, 97, 21, 49, 116, 31, 34, 21, 0)
s = 130: (0, 40, 9, 21, 64, 27, 69, 114, 40, 16, 21, 0)
s = 131: (0, 24, 10, 33, 116, 12, 67, 107, 31, 19, 33, 0)
s = 132: (0, 25, 6, 32, 86, 12, 82, 105, 44, 26, 46, 0)
s = 133: (0, 26, 5, 35, 92, 20, 48, 137, 22, 25, 42, 0)
s = 134: (0, 35, 8, 22, 101, 24, 45, 60, 32, 18, 20, 0)
s = 135: (0, 34, 10, 30, 105, 13, 56, 92, 41, 32, 35, 0)
s = 136: (0, 38, 12, 21, 113, 16, 83, 139, 30, 21, 30, 0)
s = 137: (0, 25, 8, 46, 78, 12, 55, 162, 23, 20, 43, 0)
s = 138: (0, 23, 11, 25, 44, 15, 54, 86, 32, 33, 37, 0)
s = 139: (0, 37, 7, 31, 94, 19, 40, 85, 19, 29, 36, 0)
s = 140: (0, 19, 9, 28, 46, 22, 50, 117, 24, 16, 53, 0)
s = 141: (0, 42, 7, 26, 54, 23, 85, 115, 31, 23, 26, 0)
s = 142: (0, 29, 8, 35, 131, 11, 46, 99, 41, 27, 24, 0)
s = 143: (0, 32, 7, 24, 86, 18, 62, 195, 24, 39, 34, 0)
s = 144: (0, 31, 11, 28, 85, 12, 73, 70, 40, 18, 35, 0)
s = 145: (0, 31, 10, 25, 73, 15, 55, 84, 29, 22, 21, 0)
s = 146: (0, 35, 11, 17, 112, 16, 52, 101, 19, 30, 44, 0)
s = 147: (0, 29, 9, 22, 49, 12, 82, 85, 18, 22, 30, 0)
s = 148: (0, 23, 7, 16, 53, 13, 37, 141, 38, 46, 24, 0)
s = 149: (0, 34, 9, 17, 120, 18, 95, 95, 17, 35, 25, 0)
s = 150: (0, 24, 9, 24, 45, 21, 68, 80, 37, 31, 47, 0)
s = 151: (0, 23, 7, 20, 99, 24, 66, 136, 31, 21, 25, 0)
s = 152: (0, 33, 10, 25, 81, 13, 77, 105, 35, 26, 17, 0)
s = 153: (0, 41, 10, 36, 92, 16, 42, 100, 25, 28, 27, 0)
s = 154: (0, 20, 9, 29, 101, 13, 84, 99, 29, 35, 25, 0)
s = 155: (0, 48, 6, 38, 112, 13, 43, 61, 17, 20, 38, 0)
s = 156: (0, 42, 10, 29, 65, 19, 38, 81, 25, 16, 22, 0)
s = 157: (0, 34, 12, 16, 64, 15, 55, 108, 38, 38, 39, 0)
s = 158: (0, 37, 12, 32, 67, 10, 75, 113, 16, 25, 52, 0)
s = 159: (0, 41, 11, 24, 49, 10, 43, 180, 18, 38, 31, 0)
s = 160: (0, 23, 9, 24, 69, 16, 35, 146, 35, 16, 28, 0)
s = 161: (0, 22, 6, 21, 69, 29, 85, 100, 36, 22, 36, 0)
s = 162: (0, 27, 9, 26, 72, 10, 68, 144, 41, 43, 34, 0)
s = 163: (0, 28, 8, 33, 117, 21, 49, 62, 28, 23, 33, 0)
s = 164: (0, 49, 6, 25, 74, 13, 54, 60, 27, 29, 35, 0)
s = 165: (0, 34, 5, 19, 111, 12, 65, 116, 31, 25, 39, 0)
s = 166: (0, 28, 8, 18, 115, 16, 87, 119, 32, 29, 44, 0)
s = 167: (0, 30, 12, 27, 64, 14, 67, 116, 28, 33, 46, 0)
s = 168: (0, 28, 9, 29, 74, 19, 41, 171, 26, 30, 37, 0)
s = 169: (0, 19, 8, 35, 65, 11, 55, 143, 28, 16, 21, 0)
s = 170: (0, 28, 11, 22, 99, 14, 43, 110, 45, 40, 26, 0)
s = 171: (0, 41, 7, 24, 134, 11, 35, 84, 18, 27, 25, 0)
s = 172: (0, 36, 6, 36, 71, 25, 40, 133, 26, 17, 24, 0)
s = 173: (0, 25, 11, 31, 105, 10, 36, 113, 23, 41, 47, 0)
s = 174: (0, 48, 6, 35, 81, 22, 84, 74, 22, 28, 21, 0)
s = 175: (0, 39, 11, 42, 93, 20, 55, 82, 28, 31, 26, 0)
s = 176: (0, 33, 9, 43, 76, 16, 36, 152, 29, 35, 38, 0)
s = 177: (0, 27, 11, 37, 70, 11, 65, 105, 41, 32, 24, 0)
s = 178: (0, 60, 8, 17, 60, 17, 61, 69, 36, 32, 36, 0)
s = 179: (0, 24, 5, 35, 76, 10, 59, 115, 53, 24, 19, 0)
s = 180: (0, 45, 7, 25, 53, 25, 76, 142, 20, 33, 42, 0)
s = 181: (0, 39, 11, 16, 52, 22, 51, 102, 20, 38, 25, 0)
s = 182: (0, 26, 9, 28, 69, 17, 37, 77, 47, 30, 50, 0)
s = 183: (0, 46, 5, 30, 86, 18, 46, 64, 46, 44, 35, 0)
s = 184: (0, 29, 6, 34, 92, 15, 46, 87, 42, 32, 31, 0)
s = 185: (0, 38, 9, 35, 102, 10, 45, 73, 20, 20, 32, 0)
s = 186: (0, 60, 15, 43, 55, 17, 87, 63, 30, 27, 30, 0)
s = 187: (0, 30, 10, 36, 61, 12, 40, 82, 45, 22, 34, 0)
s = 188: (0, 33, 6, 19, 85, 11, 46, 68, 31, 17, 34, 0)
s = 189: (0, 36, 8, 40, 84, 20, 32, 82, 28, 35, 49, 0)
s = 190: (0, 33, 10, 30, 133, 10, 100, 95, 33, 35, 30, 0)
s = 191: (0, 26, 13, 25, 77, 12, 60, 78, 23, 33, 34, 0)
s = 192: (0, 21, 9, 28, 77, 19, 93, 70, 30, 38, 31, 0)
s = 193: (0, 26, 8, 38, 120, 11, 58, 70, 21, 16, 37, 0)
s = 194: (0, 30, 6, 27, 88, 16, 74, 88, 29, 24, 41, 0)
s = 195: (0, 28, 13, 17, 49, 11, 42, 65, 21, 25, 28, 0)
s = 196: (0, 20, 5, 28, 82, 16, 63, 132, 53, 35, 26, 0)
s = 197: (0, 40, 10, 30, 76, 22, 36, 170, 24, 29, 39, 0)
s = 198: (0, 23, 14, 35, 83, 13, 61, 112, 46, 29, 41, 0)
s = 199: (0, 34, 8, 31, 106, 14, 76, 71, 42, 21, 27, 0)
s = 200: (0, 51, 7, 34, 82, 24, 66, 159, 36, 36, 41, 0)
------------------------------------------------------------------------
RESOURCE k = 2
s = 1: (0, 12, 9, 21, 23, 3, 43, 19, 9, 37, 23, 0)
s = 2: (0, 10, 8, 20, 33, 4, 39, 10, 11, 19, 18, 0)
s = 3: (0, 14, 6, 21, 35, 6, 26, 11, 11, 16, 19, 0)
s = 4: (0, 12, 5, 15, 22, 5, 47, 22, 18, 25, 13, 0)
s = 5: (0, 19, 11, 9, 21, 5, 31, 17, 12, 20, 17, 0)
s = 6: (0, 11, 9, 17, 23, 3, 32, 23, 12, 19, 26, 0)
s = 7: (0, 10, 10, 22, 34, 4, 46, 23, 20, 31, 16, 0)
s = 8: (0, 12, 7, 16, 31, 3, 24, 19, 12, 25, 13, 0)
s = 9: (0, 15, 6, 17, 35, 4, 45, 20, 18, 23, 11, 0)
s = 10: (0, 8, 6, 14, 34, 6, 36, 14, 14, 28, 18, 0)
s = 11: (0, 10, 9, 21, 34, 4, 37, 14, 9, 23, 16, 0)
s = 12: (0, 16, 8, 11, 54, 3, 33, 13, 19, 32, 12, 0)
s = 13: (0, 14, 6, 13, 44, 5, 34, 19, 9, 26, 16, 0)
s = 14: (0, 17, 11, 20, 27, 4, 32, 19, 20, 25, 24, 0)
s = 15: (0, 18, 9, 12, 23, 4, 31, 18, 10, 15, 23, 0)
s = 16: (0, 22, 10, 19, 35, 3, 35, 9, 10, 19, 10, 0)
s = 17: (0, 17, 5, 20, 33, 5, 21, 21, 12, 36, 15, 0)
s = 18: (0, 15, 11, 16, 47, 6, 43, 11, 18, 41, 16, 0)
s = 19: (0, 9, 9, 20, 31, 4, 55, 9, 9, 30, 22, 0)
s = 20: (0, 18, 9, 12, 32, 4, 37, 18, 20, 15, 15, 0)
s = 21: (0, 16, 9, 18, 30, 5, 43, 15, 19, 31, 17, 0)
s = 22: (0, 17, 10, 13, 45, 5, 28, 16, 10, 34, 16, 0)
s = 23: (0, 18, 8, 21, 32, 3, 51, 10, 15, 26, 15, 0)
s = 24: (0, 12, 10, 15, 35, 5, 37, 13, 19, 26, 13, 0)
s = 25: (0, 18, 7, 24, 51, 5, 30, 16, 13, 23, 12, 0)
s = 26: (0, 15, 7, 24, 36, 4, 36, 16, 13, 18, 14, 0)
s = 27: (0, 12, 10, 20, 20, 4, 19, 16, 18, 22, 20, 0)
s = 28: (0, 11, 8, 16, 35, 6, 41, 21, 19, 38, 12, 0)
s = 29: (0, 8, 5, 20, 44, 4, 44, 15, 11, 25, 18, 0)
s = 30: (0, 16, 10, 19, 24, 3, 21, 15, 14, 16, 22, 0)
s = 31: (0, 16, 8, 15, 42, 4, 30, 12, 14, 20, 13, 0)
s = 32: (0, 15, 16, 19, 33, 5, 31, 13, 13, 22, 12, 0)
s = 33: (0, 12, 11, 14, 26, 4, 36, 19, 13, 20, 16, 0)
s = 34: (0, 15, 13, 22, 55, 6, 37, 16, 15, 22, 21, 0)
s = 35: (0, 10, 10, 23, 48, 4, 30, 18, 14, 32, 23, 0)
s = 36: (0, 20, 9, 24, 24, 4, 31, 13, 16, 39, 13, 0)
s = 37: (0, 14, 7, 16, 45, 5, 36, 24, 12, 32, 27, 0)
s = 38: (0, 14, 8, 16, 25, 4, 28, 17, 15, 20, 16, 0)
s = 39: (0, 18, 8, 14, 20, 3, 40, 10, 14, 21, 17, 0)
s = 40: (0, 15, 7, 19, 23, 3, 26, 15, 16, 34, 15, 0)
s = 41: (0, 21, 6, 23, 45, 4, 28, 12, 13, 16, 16, 0)
s = 42: (0, 11, 5, 21, 50, 6, 28, 19, 10, 29, 15, 0)
s = 43: (0, 16, 9, 16, 26, 3, 24, 9, 13, 22, 22, 0)
s = 44: (0, 16, 8, 16, 44, 4, 55, 19, 12, 25, 12, 0)
s = 45: (0, 12, 12, 13, 48, 6, 41, 19, 14, 21, 13, 0)
s = 46: (0, 9, 7, 10, 35, 4, 42, 11, 11, 17, 18, 0)
s = 47: (0, 10, 9, 14, 32, 3, 19, 13, 19, 24, 21, 0)
s = 48: (0, 11, 14, 17, 40, 4, 38, 11, 10, 25, 18, 0)
s = 49: (0, 12, 11, 18, 28, 5, 20, 18, 12, 30, 21, 0)
s = 50: (0, 10, 9, 20, 44, 4, 47, 11, 11, 17, 11, 0)
s = 51: (0, 9, 9, 15, 45, 5, 25, 15, 16, 18, 17, 0)
s = 52: (0, 13, 11, 12, 26, 5, 38, 19, 16, 19, 18, 0)
s = 53: (0, 8, 6, 17, 37, 4, 19, 16, 16, 34, 18, 0)
s = 54: (0, 20, 7, 21, 31, 5, 45, 15, 18, 27, 16, 0)
s = 55: (0, 10, 15, 10, 23, 6, 23, 22, 20, 35, 12, 0)
s = 56: (0, 17, 6, 13, 44, 4, 26, 15, 9, 17, 18, 0)
s = 57: (0, 9, 5, 17, 42, 4, 28, 12, 17, 28, 26, 0)
s = 58: (0, 24, 12, 9, 30, 6, 25, 11, 14, 25, 15, 0)
s = 59: (0, 13, 7, 13, 38, 3, 35, 16, 10, 30, 28, 0)
s = 60: (0, 22, 8, 17, 52, 4, 43, 13, 11, 25, 13, 0)
s = 61: (0, 10, 7, 13, 49, 4, 23, 16, 12, 20, 9, 0)
s = 62: (0, 23, 5, 18, 31, 4, 48, 12, 19, 20, 14, 0)
s = 63: (0, 11, 8, 10, 42, 4, 30, 15, 11, 16, 21, 0)
s = 64: (0, 15, 9, 14, 30, 4, 29, 18, 16, 33, 18, 0)
s = 65: (0, 16, 9, 21, 22, 4, 37, 24, 23, 37, 15, 0)
s = 66: (0, 21, 12, 18, 24, 6, 29, 9, 11, 19, 15, 0)
s = 67: (0, 13, 12, 13, 26, 5, 28, 18, 11, 37, 18, 0)
s = 68: (0, 12, 9, 10, 43, 5, 57, 16, 18, 18, 22, 0)
s = 69: (0, 11, 7, 17, 28, 5, 53, 19, 10, 14, 19, 0)
s = 70: (0, 11, 9, 13, 23, 4, 48, 20, 13, 22, 13, 0)
s = 71: (0, 11, 7, 27, 35, 5, 30, 13, 11, 17, 19, 0)
s = 72: (0, 9, 7, 19, 34, 5, 43, 21, 13, 19, 17, 0)
s = 73: (0, 13, 9, 18, 25, 4, 24, 19, 10, 28, 20, 0)
s = 74: (0, 15, 6, 25, 56, 6, 25, 15, 14, 19, 19, 0)
s = 75: (0, 14, 9, 17, 32, 4, 46, 9, 13, 32, 14, 0)
s = 76: (0, 13, 12, 19, 24, 7, 24, 20, 10, 27, 23, 0)
s = 77: (0, 11, 7, 18, 32, 5, 23, 10, 15, 26, 17, 0)
s = 78: (0, 10, 13, 15, 34, 4, 27, 11, 20, 19, 15, 0)
s = 79: (0, 9, 8, 12, 38, 6, 31, 15, 14, 28, 20, 0)
s = 80: (0, 16, 5, 14, 39, 7, 35, 9, 8, 21, 15, 0)
s = 81: (0, 11, 6, 12, 35, 4, 40, 15, 9, 39, 14, 0)
s = 82: (0, 12, 9, 17, 29, 6, 30, 17, 12, 31, 12, 0)
s = 83: (0, 24, 9, 13, 46, 5, 35, 10, 21, 20, 17, 0)
s = 84: (0, 12, 9, 12, 38, 4, 25, 11, 15, 14, 11, 0)
s = 85: (0, 16, 9, 17, 42, 5, 43, 12, 24, 35, 20, 0)
s = 86: (0, 14, 8, 22, 30, 4, 33, 11, 18, 31, 14, 0)
s = 87: (0, 16, 8, 15, 21, 4, 48, 17, 19, 16, 15, 0)
s = 88: (0, 18, 8, 17, 40, 5, 23, 12, 20, 18, 26, 0)
s = 89: (0, 11, 12, 18, 27, 4, 50, 17, 10, 31, 21, 0)
s = 90: (0, 12, 6, 25, 31, 4, 30, 12, 11, 26, 11, 0)
s = 91: (0, 20, 8, 21, 19, 4, 23, 14, 17, 20, 16, 0)
s = 92: (0, 15, 12, 22, 26, 4, 64, 16, 11, 14, 23, 0)
s = 93: (0, 15, 10, 17, 24, 3, 27, 10, 17, 20, 13, 0)
s = 94: (0, 12, 7, 17, 47, 6, 53, 14, 13, 22, 25, 0)
s = 95: (0, 14, 10, 14, 27, 7, 37, 20, 21, 23, 15, 0)
s = 96: (0, 19, 11, 15, 27, 4, 23, 18, 18, 17, 17, 0)
s = 97: (0, 11, 10, 11, 42, 6, 33, 20, 16, 24, 11, 0)
s = 98: (0, 9, 8, 11, 18, 6, 40, 15, 11, 21, 16, 0)
s = 99: (0, 19, 10, 21, 27, 6, 66, 15, 21, 31, 22, 0)
s = 100: (0, 9, 7, 27, 31, 7, 29, 18, 18, 29, 25, 0)
s = 101: (0, 19, 10, 21, 36, 5, 56, 16, 15, 25, 16, 0)
s = 102: (0, 17, 5, 11, 35, 3, 24, 17, 15, 21, 9, 0)
s = 103: (0, 12, 7, 10, 35, 5, 35, 16, 17, 19, 24, 0)
s = 104: (0, 16, 7, 12, 22, 3, 49, 10, 15, 23, 25, 0)
s = 105: (0, 22, 8, 13, 30, 6, 33, 20, 11, 27, 17, 0)
s = 106: (0, 11, 9, 23, 39, 3, 35, 8, 14, 30, 14, 0)
s = 107: (0, 13, 9, 21, 22, 4, 53, 15, 17, 31, 14, 0)
s = 108: (0, 17, 9, 20, 30, 4, 49, 11, 12, 34, 29, 0)
s = 109: (0, 12, 10, 11, 40, 5, 34, 10, 9, 40, 17, 0)
s = 110: (0, 16, 11, 11, 36, 7, 57, 19, 13, 24, 15, 0)
s = 111: (0, 15, 11, 19, 31, 7, 46, 15, 15, 25, 16, 0)
s = 112: (0, 11, 11, 12, 40, 4, 31, 19, 16, 20, 20, 0)
s = 113: (0, 16, 8, 14, 21, 3, 37, 15, 12, 21, 13, 0)
s = 114: (0, 13, 6, 17, 43, 4, 34, 15, 18, 29, 15, 0)
s = 115: (0, 17, 6, 17, 20, 4, 28, 17, 13, 21, 14, 0)
s = 116: (0, 14, 11, 13, 41, 4, 46, 25, 18, 17, 11, 0)
s = 117: (0, 11, 12, 19, 35, 5, 24, 22, 16, 22, 10, 0)
s = 118: (0, 16, 8, 17, 34, 6, 30, 20, 22, 21, 20, 0)
s = 119: (0, 13, 6, 19, 20, 4, 35, 13, 15, 27, 25, 0)
s = 120: (0, 11, 6, 24, 40, 5, 24, 17, 17, 36, 23, 0)
s = 121: (0, 10, 12, 14, 33, 6, 28, 20, 19, 26, 20, 0)
s = 122: (0, 9, 8, 14, 42, 4, 30, 16, 11, 21, 15, 0)
s = 123: (0, 18, 11, 11, 19, 5, 34, 15, 9, 23, 12, 0)
s = 124: (0, 13, 7, 17, 37, 4, 51, 19, 21, 18, 16, 0)
s = 125: (0, 12, 8, 11, 31, 3, 44, 11, 11, 27, 18, 0)
s = 126: (0, 17, 8, 19, 42, 4, 31, 20, 13, 29, 21, 0)
s = 127: (0, 16, 7, 9, 24, 6, 29, 15, 15, 27, 20, 0)
s = 128: (0, 14, 12, 11, 27, 4, 31, 12, 19, 37, 15, 0)
s = 129: (0, 13, 6, 17, 39, 6, 31, 18, 15, 31, 11, 0)
s = 130: (0, 17, 9, 12, 26, 7, 44, 17, 19, 15, 11, 0)
s = 131: (0, 10, 10, 19, 47, 4, 43, 17, 15, 17, 17, 0)
s = 132: (0, 11, 6, 19, 35, 3, 53, 16, 21, 24, 23, 0)
s = 133: (0, 11, 5, 20, 37, 6, 31, 21, 11, 22, 21, 0)
s = 134: (0, 15, 8, 13, 41, 7, 29, 9, 15, 16, 10, 0)
s = 135: (0, 14, 10, 18, 42, 4, 36, 14, 19, 28, 18, 0)
s = 136: (0, 16, 12, 12, 45, 5, 53, 21, 14, 19, 15, 0)
s = 137: (0, 11, 8, 26, 31, 4, 35, 25, 11, 17, 22, 0)
s = 138: (0, 10, 11, 14, 18, 4, 34, 13, 15, 29, 19, 0)
s = 139: (0, 15, 7, 18, 38, 5, 26, 13, 9, 26, 18, 0)
s = 140: (0, 8, 9, 16, 19, 6, 32, 18, 11, 15, 27, 0)
s = 141: (0, 18, 7, 15, 22, 7, 54, 18, 15, 20, 13, 0)
s = 142: (0, 12, 8, 20, 53, 3, 30, 15, 20, 24, 12, 0)
s = 143: (0, 13, 7, 14, 35, 5, 40, 30, 12, 34, 17, 0)
s = 144: (0, 13, 11, 16, 34, 4, 46, 11, 19, 16, 18, 0)
s = 145: (0, 13, 10, 14, 29, 4, 35, 13, 14, 20, 11, 0)
s = 146: (0, 15, 11, 10, 45, 5, 33, 16, 9, 27, 22, 0)
s = 147: (0, 12, 9, 13, 20, 3, 53, 13, 9, 19, 15, 0)
s = 148: (0, 10, 7, 9, 21, 4, 24, 22, 18, 41, 12, 0)
s = 149: (0, 14, 9, 10, 48, 5, 61, 15, 8, 31, 13, 0)
s = 150: (0, 10, 9, 14, 18, 6, 43, 12, 18, 27, 24, 0)
s = 151: (0, 10, 7, 11, 40, 7, 42, 21, 15, 19, 13, 0)
s = 152: (0, 14, 10, 14, 33, 4, 49, 16, 16, 23, 9, 0)
s = 153: (0, 17, 10, 21, 37, 5, 27, 15, 12, 25, 14, 0)
s = 154: (0, 8, 9, 17, 41, 4, 53, 15, 14, 32, 13, 0)
s = 155: (0, 20, 6, 22, 45, 4, 28, 10, 8, 18, 19, 0)
s = 156: (0, 18, 10, 17, 26, 6, 24, 13, 12, 14, 11, 0)
s = 157: (0, 14, 12, 10, 26, 4, 35, 17, 18, 33, 20, 0)
s = 158: (0, 15, 12, 18, 27, 3, 48, 17, 8, 23, 26, 0)
s = 159: (0, 17, 11, 14, 20, 3, 27, 27, 9, 34, 16, 0)
s = 160: (0, 10, 9, 14, 28, 5, 23, 22, 17, 14, 14, 0)
s = 161: (0, 9, 6, 12, 28, 8, 54, 15, 17, 20, 18, 0)
s = 162: (0, 12, 9, 15, 29, 3, 43, 22, 19, 38, 17, 0)
s = 163: (0, 12, 8, 19, 47, 6, 31, 10, 13, 21, 17, 0)
s = 164: (0, 20, 6, 14, 30, 4, 34, 9, 13, 26, 18, 0)
s = 165: (0, 14, 5, 11, 45, 3, 41, 18, 15, 22, 20, 0)
s = 166: (0, 12, 8, 10, 46, 5, 56, 18, 15, 26, 22, 0)
s = 167: (0, 13, 12, 15, 26, 4, 43, 18, 13, 30, 23, 0)
s = 168: (0, 12, 9, 17, 30, 5, 26, 26, 13, 27, 19, 0)
s = 169: (0, 8, 8, 20, 26, 3, 35, 22, 14, 14, 11, 0)
s = 170: (0, 12, 11, 13, 40, 4, 27, 17, 21, 35, 13, 0)
s = 171: (0, 17, 7, 14, 54, 3, 23, 13, 9, 24, 13, 0)
s = 172: (0, 15, 6, 21, 29, 7, 25, 20, 12, 15, 12, 0)
s = 173: (0, 11, 11, 18, 42, 3, 23, 17, 11, 36, 24, 0)
s = 174: (0, 20, 6, 20, 33, 6, 53, 11, 11, 25, 11, 0)
s = 175: (0, 17, 11, 24, 37, 6, 35, 13, 13, 28, 13, 0)
s = 176: (0, 14, 9, 25, 31, 5, 23, 23, 14, 31, 19, 0)
s = 177: (0, 11, 11, 22, 28, 3, 42, 16, 19, 29, 12, 0)
s = 178: (0, 25, 8, 10, 24, 5, 39, 11, 17, 28, 18, 0)
s = 179: (0, 10, 5, 20, 31, 3, 37, 18, 25, 21, 10, 0)
s = 180: (0, 19, 7, 14, 22, 7, 48, 22, 9, 30, 21, 0)
s = 181: (0, 16, 11, 9, 21, 6, 33, 16, 10, 34, 13, 0)
s = 182: (0, 11, 9, 16, 28, 5, 24, 12, 22, 27, 25, 0)
s = 183: (0, 19, 5, 17, 35, 5, 29, 10, 22, 39, 18, 0)
s = 184: (0, 12, 6, 20, 37, 4, 29, 13, 20, 28, 16, 0)
s = 185: (0, 16, 9, 20, 41, 3, 29, 11, 9, 18, 16, 0)
s = 186: (0, 25, 15, 25, 22, 5, 56, 10, 14, 24, 15, 0)
s = 187: (0, 13, 10, 21, 25, 3, 26, 13, 21, 20, 17, 0)
s = 188: (0, 14, 6, 11, 34, 3, 30, 11, 15, 15, 17, 0)
s = 189: (0, 15, 8, 23, 34, 6, 20, 13, 13, 31, 25, 0)
s = 190: (0, 14, 10, 17, 54, 3, 64, 15, 16, 31, 15, 0)
s = 191: (0, 11, 13, 14, 31, 3, 38, 12, 11, 30, 17, 0)
s = 192: (0, 9, 9, 16, 31, 5, 59, 11, 14, 34, 16, 0)
s = 193: (0, 11, 8, 22, 48, 3, 37, 11, 10, 14, 19, 0)
s = 194: (0, 13, 6, 16, 35, 5, 47, 14, 14, 22, 21, 0)
s = 195: (0, 12, 13, 10, 20, 3, 27, 10, 10, 23, 14, 0)
s = 196: (0, 9, 5, 16, 33, 5, 40, 20, 25, 31, 13, 0)
s = 197: (0, 17, 10, 17, 31, 6, 23, 26, 11, 26, 20, 0)
s = 198: (0, 10, 14, 20, 34, 4, 39, 17, 22, 26, 21, 0)
s = 199: (0, 14, 8, 18, 43, 4, 49, 11, 20, 18, 14, 0)
s = 200: (0, 21, 7, 20, 33, 7, 42, 24, 17, 32, 21, 0)
------------------------------------------------------------------------
RESOURCE k = 3
s = 1: (0, 8, 8, 26, 28, 2, 61, 49, 10, 10, 15, 0)
s = 2: (0, 7, 7, 25, 42, 2, 56, 27, 12, 5, 12, 0)
s = 3: (0, 10, 6, 27, 43, 3, 37, 30, 13, 4, 12, 0)
s = 4: (0, 9, 4, 18, 28, 3, 68, 57, 21, 7, 8, 0)
s = 5: (0, 14, 9, 11, 26, 3, 45, 45, 14, 5, 11, 0)
s = 6: (0, 8, 8, 21, 29, 2, 45, 60, 13, 5, 16, 0)
s = 7: (0, 7, 9, 28, 42, 2, 65, 61, 23, 8, 10, 0)
s = 8: (0, 9, 6, 20, 38, 2, 34, 50, 14, 7, 8, 0)
s = 9: (0, 11, 5, 21, 44, 2, 64, 52, 20, 6, 7, 0)
s = 10: (0, 6, 5, 18, 42, 3, 51, 36, 16, 7, 11, 0)
s = 11: (0, 7, 8, 26, 42, 2, 52, 36, 10, 6, 10, 0)
s = 12: (0, 11, 7, 14, 68, 2, 47, 33, 21, 8, 8, 0)
s = 13: (0, 10, 5, 16, 55, 3, 48, 51, 11, 7, 10, 0)
s = 14: (0, 12, 10, 25, 34, 2, 46, 51, 22, 7, 15, 0)
s = 15: (0, 13, 8, 15, 29, 2, 45, 48, 11, 4, 14, 0)
s = 16: (0, 16, 9, 23, 44, 2, 50, 24, 12, 5, 6, 0)
s = 17: (0, 12, 4, 25, 41, 3, 29, 55, 13, 9, 9, 0)
s = 18: (0, 11, 10, 20, 59, 3, 62, 29, 20, 11, 10, 0)
s = 19: (0, 6, 8, 25, 39, 2, 79, 23, 10, 8, 14, 0)
s = 20: (0, 13, 8, 15, 40, 2, 53, 46, 22, 4, 9, 0)
s = 21: (0, 11, 8, 23, 38, 3, 61, 38, 22, 8, 11, 0)
s = 22: (0, 12, 9, 17, 57, 3, 40, 42, 11, 9, 10, 0)
s = 23: (0, 13, 7, 26, 40, 2, 73, 26, 17, 7, 9, 0)
s = 24: (0, 9, 8, 18, 44, 3, 52, 33, 22, 7, 8, 0)
s = 25: (0, 13, 7, 30, 64, 3, 42, 42, 15, 6, 8, 0)
s = 26: (0, 11, 6, 30, 45, 2, 51, 42, 15, 5, 9, 0)
s = 27: (0, 9, 9, 25, 25, 2, 28, 42, 20, 6, 13, 0)
s = 28: (0, 8, 7, 20, 44, 3, 59, 56, 21, 10, 8, 0)
s = 29: (0, 6, 5, 25, 55, 2, 63, 40, 12, 7, 12, 0)
s = 30: (0, 12, 9, 24, 30, 2, 30, 40, 16, 4, 14, 0)
s = 31: (0, 12, 7, 19, 52, 2, 43, 32, 16, 5, 8, 0)
s = 32: (0, 11, 14, 24, 42, 3, 44, 34, 15, 6, 8, 0)
s = 33: (0, 9, 10, 17, 32, 2, 51, 50, 15, 5, 10, 0)
s = 34: (0, 11, 11, 27, 69, 3, 53, 41, 18, 6, 13, 0)
s = 35: (0, 7, 9, 28, 60, 2, 43, 46, 16, 8, 14, 0)
s = 36: (0, 15, 8, 30, 30, 2, 44, 35, 18, 10, 9, 0)
s = 37: (0, 10, 6, 19, 56, 3, 51, 63, 14, 8, 17, 0)
s = 38: (0, 10, 7, 19, 31, 2, 40, 44, 17, 5, 10, 0)
s = 39: (0, 13, 7, 17, 25, 2, 57, 26, 16, 6, 11, 0)
s = 40: (0, 11, 7, 24, 29, 2, 37, 40, 19, 9, 10, 0)
s = 41: (0, 15, 5, 29, 56, 2, 40, 30, 15, 4, 10, 0)
s = 42: (0, 8, 4, 27, 63, 3, 39, 50, 11, 8, 9, 0)
s = 43: (0, 12, 8, 20, 33, 2, 34, 23, 15, 6, 14, 0)
s = 44: (0, 11, 7, 20, 55, 2, 78, 51, 14, 7, 8, 0)
s = 45: (0, 8, 11, 16, 60, 3, 59, 50, 16, 6, 8, 0)
s = 46: (0, 7, 6, 13, 43, 2, 59, 29, 13, 5, 11, 0)
s = 47: (0, 7, 8, 18, 40, 2, 27, 35, 22, 6, 13, 0)
s = 48: (0, 8, 12, 22, 49, 2, 55, 27, 11, 7, 11, 0)
s = 49: (0, 9, 9, 22, 34, 3, 29, 46, 14, 8, 13, 0)
s = 50: (0, 7, 8, 25, 55, 2, 68, 28, 12, 5, 7, 0)
s = 51: (0, 7, 8, 19, 56, 3, 36, 40, 18, 5, 11, 0)
s = 52: (0, 9, 9, 15, 32, 3, 54, 50, 19, 5, 11, 0)
s = 53: (0, 6, 6, 21, 47, 2, 27, 43, 19, 9, 11, 0)
s = 54: (0, 14, 6, 26, 39, 3, 64, 39, 21, 7, 10, 0)
s = 55: (0, 7, 13, 13, 29, 3, 32, 57, 22, 9, 8, 0)
s = 56: (0, 12, 5, 16, 55, 2, 37, 40, 10, 5, 11, 0)
s = 57: (0, 7, 5, 21, 53, 2, 39, 31, 19, 7, 16, 0)
s = 58: (0, 17, 11, 11, 37, 3, 35, 29, 16, 7, 10, 0)
s = 59: (0, 10, 6, 16, 48, 2, 50, 43, 12, 8, 18, 0)
s = 60: (0, 16, 7, 21, 65, 2, 61, 34, 12, 7, 8, 0)
s = 61: (0, 7, 6, 16, 61, 2, 33, 42, 13, 5, 6, 0)
s = 62: (0, 17, 5, 23, 39, 2, 68, 32, 22, 5, 9, 0)
s = 63: (0, 8, 7, 12, 52, 2, 43, 39, 13, 4, 13, 0)
s = 64: (0, 11, 8, 17, 37, 2, 41, 47, 19, 9, 11, 0)
s = 65: (0, 11, 8, 26, 27, 2, 52, 62, 26, 10, 10, 0)
s = 66: (0, 15, 11, 23, 30, 3, 41, 22, 12, 5, 10, 0)
s = 67: (0, 9, 10, 17, 33, 3, 40, 48, 13, 10, 12, 0)
s = 68: (0, 9, 8, 12, 54, 3, 82, 41, 21, 5, 14, 0)
s = 69: (0, 8, 6, 21, 34, 3, 76, 49, 11, 4, 12, 0)
s = 70: (0, 8, 8, 16, 28, 2, 69, 53, 14, 6, 8, 0)
s = 71: (0, 8, 6, 34, 43, 3, 42, 34, 13, 5, 12, 0)
s = 72: (0, 7, 6, 24, 42, 3, 61, 54, 15, 5, 11, 0)
s = 73: (0, 9, 8, 23, 31, 2, 33, 51, 12, 7, 13, 0)
s = 74: (0, 11, 5, 32, 70, 3, 36, 40, 16, 5, 12, 0)
s = 75: (0, 10, 8, 21, 40, 2, 66, 23, 15, 8, 9, 0)
s = 76: (0, 9, 11, 24, 30, 4, 34, 53, 11, 7, 15, 0)
s = 77: (0, 8, 6, 22, 40, 3, 33, 27, 17, 7, 11, 0)
s = 78: (0, 7, 11, 18, 43, 2, 39, 28, 23, 5, 9, 0)
s = 79: (0, 7, 7, 15, 48, 3, 44, 40, 15, 7, 12, 0)
s = 80: (0, 12, 4, 18, 48, 4, 50, 24, 10, 6, 9, 0)
s = 81: (0, 8, 5, 15, 43, 2, 57, 40, 10, 10, 9, 0)
s = 82: (0, 9, 8, 21, 36, 3, 42, 43, 14, 8, 8, 0)
s = 83: (0, 17, 8, 17, 57, 3, 49, 26, 24, 5, 11, 0)
s = 84: (0, 9, 8, 15, 47, 2, 35, 28, 17, 4, 7, 0)
s = 85: (0, 11, 8, 21, 52, 3, 62, 31, 27, 9, 13, 0)
s = 86: (0, 10, 7, 28, 37, 2, 47, 29, 20, 8, 9, 0)
s = 87: (0, 11, 7, 19, 26, 2, 68, 43, 22, 4, 10, 0)
s = 88: (0, 13, 7, 21, 50, 3, 32, 32, 23, 5, 16, 0)
s = 89: (0, 8, 11, 22, 33, 2, 71, 44, 11, 8, 13, 0)
s = 90: (0, 9, 5, 31, 39, 2, 42, 31, 13, 7, 7, 0)
s = 91: (0, 14, 7, 26, 23, 2, 33, 37, 19, 5, 10, 0)
s = 92: (0, 11, 11, 27, 33, 2, 91, 43, 12, 4, 15, 0)
s = 93: (0, 11, 9, 22, 30, 2, 38, 25, 19, 5, 9, 0)
s = 94: (0, 9, 6, 21, 59, 3, 76, 38, 15, 6, 16, 0)
s = 95: (0, 10, 9, 17, 33, 4, 53, 53, 24, 6, 10, 0)
s = 96: (0, 14, 10, 18, 33, 2, 33, 46, 20, 5, 11, 0)
s = 97: (0, 8, 8, 14, 53, 3, 47, 52, 19, 6, 7, 0)
s = 98: (0, 6, 7, 13, 22, 3, 56, 38, 12, 6, 10, 0)
s = 99: (0, 14, 9, 26, 33, 3, 94, 39, 24, 8, 14, 0)
s = 100: (0, 7, 6, 33, 39, 4, 42, 47, 21, 8, 16, 0)
s = 101: (0, 14, 9, 26, 45, 3, 80, 41, 17, 7, 10, 0)
s = 102: (0, 12, 5, 14, 44, 2, 34, 43, 18, 6, 6, 0)
s = 103: (0, 9, 6, 13, 44, 3, 49, 41, 19, 5, 15, 0)
s = 104: (0, 11, 6, 15, 28, 2, 70, 26, 17, 6, 16, 0)
s = 105: (0, 16, 7, 16, 37, 3, 47, 53, 13, 7, 11, 0)
s = 106: (0, 8, 8, 28, 49, 2, 50, 21, 15, 8, 9, 0)
s = 107: (0, 10, 8, 27, 28, 2, 75, 38, 19, 8, 9, 0)
s = 108: (0, 12, 8, 25, 37, 2, 70, 28, 14, 9, 19, 0)
s = 109: (0, 9, 9, 14, 50, 3, 48, 26, 10, 10, 11, 0)
s = 110: (0, 12, 10, 13, 45, 4, 81, 50, 14, 6, 10, 0)
s = 111: (0, 11, 10, 24, 39, 4, 65, 38, 17, 7, 10, 0)
s = 112: (0, 8, 10, 14, 50, 2, 44, 51, 18, 5, 13, 0)
s = 113: (0, 11, 7, 17, 26, 2, 53, 39, 14, 6, 8, 0)
s = 114: (0, 10, 5, 21, 54, 2, 48, 39, 21, 8, 10, 0)
s = 115: (0, 12, 6, 21, 25, 2, 39, 44, 15, 6, 9, 0)
s = 116: (0, 10, 10, 17, 51, 2, 65, 65, 20, 5, 7, 0)
s = 117: (0, 8, 11, 24, 43, 3, 35, 57, 18, 6, 6, 0)
s = 118: (0, 12, 7, 21, 42, 3, 43, 52, 25, 6, 12, 0)
s = 119: (0, 9, 5, 24, 25, 2, 50, 35, 17, 7, 16, 0)
s = 120: (0, 8, 5, 30, 50, 3, 33, 45, 20, 9, 14, 0)
s = 121: (0, 8, 10, 18, 42, 3, 40, 54, 22, 7, 13, 0)
s = 122: (0, 6, 7, 17, 53, 2, 43, 41, 12, 6, 10, 0)
s = 123: (0, 13, 9, 14, 24, 3, 49, 39, 11, 6, 8, 0)
s = 124: (0, 9, 6, 21, 46, 2, 72, 50, 23, 5, 10, 0)
s = 125: (0, 9, 7, 14, 39, 2, 62, 28, 12, 7, 11, 0)
s = 126: (0, 13, 7, 24, 53, 2, 44, 51, 15, 8, 13, 0)
s = 127: (0, 12, 6, 12, 30, 3, 41, 38, 17, 7, 13, 0)
s = 128: (0, 10, 11, 13, 33, 2, 44, 32, 22, 10, 10, 0)
s = 129: (0, 9, 5, 21, 49, 3, 44, 47, 17, 8, 7, 0)
s = 130: (0, 12, 8, 15, 32, 4, 63, 46, 21, 4, 7, 0)
s = 131: (0, 8, 9, 24, 58, 2, 61, 43, 17, 5, 11, 0)
s = 132: (0, 8, 6, 23, 43, 2, 75, 42, 24, 6, 15, 0)
s = 133: (0, 8, 5, 25, 46, 3, 44, 55, 12, 6, 13, 0)
s = 134: (0, 11, 7, 16, 51, 4, 41, 24, 17, 4, 7, 0)
s = 135: (0, 10, 8, 22, 53, 2, 51, 37, 22, 7, 11, 0)
s = 136: (0, 12, 11, 15, 57, 3, 76, 56, 16, 5, 10, 0)
s = 137: (0, 8, 7, 33, 39, 2, 50, 65, 12, 5, 14, 0)
s = 138: (0, 7, 10, 18, 22, 2, 49, 35, 17, 8, 12, 0)
s = 139: (0, 11, 6, 22, 47, 3, 37, 34, 10, 7, 12, 0)
s = 140: (0, 6, 8, 20, 23, 3, 46, 47, 13, 4, 17, 0)
s = 141: (0, 13, 6, 19, 27, 4, 77, 46, 17, 5, 9, 0)
s = 142: (0, 9, 7, 25, 66, 2, 42, 40, 22, 6, 8, 0)
s = 143: (0, 10, 6, 17, 43, 3, 57, 78, 13, 9, 11, 0)
s = 144: (0, 9, 9, 20, 43, 2, 66, 28, 22, 4, 11, 0)
s = 145: (0, 9, 9, 18, 37, 2, 50, 34, 16, 5, 7, 0)
s = 146: (0, 11, 9, 12, 56, 3, 47, 41, 10, 7, 14, 0)
s = 147: (0, 9, 8, 16, 25, 2, 75, 34, 10, 5, 10, 0)
s = 148: (0, 7, 6, 12, 27, 2, 34, 57, 20, 11, 8, 0)
s = 149: (0, 10, 8, 12, 60, 3, 87, 38, 10, 8, 8, 0)
s = 150: (0, 7, 8, 18, 23, 3, 62, 32, 20, 7, 15, 0)
s = 151: (0, 7, 6, 14, 50, 4, 60, 55, 17, 5, 8, 0)
s = 152: (0, 10, 9, 18, 41, 2, 70, 42, 19, 6, 6, 0)
s = 153: (0, 12, 9, 26, 46, 3, 38, 40, 14, 7, 9, 0)
s = 154: (0, 6, 8, 21, 51, 2, 76, 40, 16, 8, 8, 0)
s = 155: (0, 14, 5, 28, 56, 2, 39, 25, 9, 5, 12, 0)
s = 156: (0, 13, 8, 21, 33, 3, 34, 33, 13, 4, 7, 0)
s = 157: (0, 10, 11, 12, 32, 2, 50, 43, 21, 9, 13, 0)
s = 158: (0, 11, 11, 23, 34, 2, 68, 46, 9, 6, 17, 0)
s = 159: (0, 12, 9, 18, 25, 2, 39, 72, 10, 9, 10, 0)
s = 160: (0, 7, 8, 17, 35, 3, 32, 59, 19, 4, 9, 0)
s = 161: (0, 7, 5, 15, 35, 4, 77, 40, 20, 5, 12, 0)
s = 162: (0, 8, 8, 18, 36, 2, 62, 58, 22, 10, 11, 0)
s = 163: (0, 9, 7, 24, 59, 3, 45, 25, 15, 6, 11, 0)
s = 164: (0, 15, 5, 18, 37, 2, 49, 24, 15, 7, 11, 0)
s = 165: (0, 10, 5, 14, 56, 2, 59, 47, 17, 6, 13, 0)
s = 166: (0, 9, 7, 13, 58, 3, 79, 48, 17, 7, 14, 0)
s = 167: (0, 9, 10, 19, 32, 2, 61, 47, 15, 8, 15, 0)
s = 168: (0, 8, 8, 21, 37, 3, 37, 69, 14, 7, 12, 0)
s = 169: (0, 6, 7, 25, 33, 2, 50, 57, 15, 4, 7, 0)
s = 170: (0, 8, 9, 16, 50, 2, 39, 44, 24, 9, 9, 0)
s = 171: (0, 13, 6, 17, 67, 2, 32, 34, 10, 6, 8, 0)
s = 172: (0, 11, 5, 26, 36, 4, 36, 54, 14, 4, 8, 0)
s = 173: (0, 8, 10, 22, 53, 2, 33, 46, 13, 9, 15, 0)
s = 174: (0, 14, 6, 25, 41, 3, 76, 30, 12, 7, 7, 0)
s = 175: (0, 12, 10, 30, 47, 3, 50, 33, 15, 7, 8, 0)
s = 176: (0, 10, 8, 31, 38, 3, 33, 61, 16, 8, 12, 0)
s = 177: (0, 8, 9, 27, 35, 2, 60, 42, 22, 8, 8, 0)
s = 178: (0, 18, 7, 12, 30, 3, 55, 28, 19, 7, 12, 0)
s = 179: (0, 7, 5, 25, 38, 2, 53, 46, 29, 6, 6, 0)
s = 180: (0, 14, 6, 18, 27, 4, 69, 57, 11, 8, 14, 0)
s = 181: (0, 12, 9, 11, 26, 3, 46, 41, 11, 9, 8, 0)
s = 182: (0, 8, 8, 20, 35, 3, 34, 31, 25, 7, 16, 0)
s = 183: (0, 14, 4, 21, 43, 3, 42, 26, 25, 10, 11, 0)
s = 184: (0, 9, 5, 24, 46, 2, 41, 35, 23, 7, 10, 0)
s = 185: (0, 12, 8, 25, 51, 2, 41, 30, 11, 5, 10, 0)
s = 186: (0, 18, 13, 31, 28, 3, 79, 25, 16, 6, 10, 0)
s = 187: (0, 9, 9, 26, 31, 2, 37, 33, 24, 5, 11, 0)
s = 188: (0, 10, 5, 14, 43, 2, 42, 28, 17, 4, 11, 0)
s = 189: (0, 11, 7, 28, 42, 3, 29, 33, 15, 8, 16, 0)
s = 190: (0, 10, 9, 22, 67, 2, 91, 38, 18, 8, 10, 0)
s = 191: (0, 8, 11, 18, 39, 2, 55, 32, 13, 8, 11, 0)
s = 192: (0, 7, 8, 20, 39, 3, 85, 28, 16, 9, 10, 0)
s = 193: (0, 8, 7, 27, 60, 2, 52, 28, 11, 4, 12, 0)
s = 194: (0, 9, 6, 20, 44, 3, 67, 36, 16, 6, 13, 0)
s = 195: (0, 9, 12, 12, 25, 2, 39, 26, 11, 6, 9, 0)
s = 196: (0, 6, 5, 20, 41, 3, 57, 53, 28, 8, 9, 0)
s = 197: (0, 12, 9, 21, 38, 3, 32, 68, 13, 7, 12, 0)
s = 198: (0, 7, 12, 25, 42, 2, 55, 45, 25, 7, 13, 0)
s = 199: (0, 10, 7, 22, 53, 2, 69, 29, 23, 5, 9, 0)
s = 200: (0, 15, 7, 25, 41, 4, 60, 64, 19, 8, 13, 0)
************************************************************************
ES/LS-VALUES:
jobnr.   ES(i)    LS(i)
------------------------------------------------------------------------
  0        0        0
  1        0       39
  2        0       50
  3        0       56
  4        3       43
  5       10       50
  6       12       52
  7        3       52
  8       12       62
  9        3       60
 10       21       62
 11       24       66
************************************************************************
BIG-M-VALUES:
M1 = 55, M2 = 313
************************************************************************
